NAME : portcgen-21-32
COMMENT : portcgen N=21, seed=32
TYPE : TSP
DIMENSION : 21
EDGE_WEIGHT_TYPE : EUC_2D
NODE_COORD_SECTION
1 -132954 -410767
2 -14836 -35851
3 -93429 267212
4 219627 -139725
5 -71278 -187768
6 -22288 -186305
7 -69012 164767
8 -6942 69717
9 33154 213880
10 -361749 -56193
11 -288602 50535
12 515287 -216912
13 -301851 33029
14 87882 -125025
15 -108261 -183472
16 -236956 -167243
17 -118615 -129217
18 243255 -122702
19 108416 296286
20 9677 45855
21 44551 -74507
